# Solution for model GasLib-40
# Objective value = 5.9694611035277269e+01
loadshed[innode_1] 0
loadshed[innode_2] 0
loadshed[innode_3] 0
loadshed[innode_4] 0
loadshed[innode_5] 0
loadshed[innode_6] 0
loadshed[innode_7] 0
loadshed[innode_8] 0
loadshed[source_1] -1.0512763161149219e-01
loadshed[source_2] 2.3773813804025279e-01
loadshed[source_3] 2.4498773600815560e-01
loadshed[sink_1] 7.0797043057763220e-01
loadshed[sink_2] 0
loadshed[sink_3] 0
loadshed[sink_4] 0
loadshed[sink_5] 0
loadshed[sink_6] 0
loadshed[sink_7] 0
loadshed[sink_8] 0
loadshed[sink_9] 0
loadshed[sink_10] 0
loadshed[sink_11] 0
loadshed[sink_12] 1
loadshed[sink_13] 0
loadshed[sink_14] 0
loadshed[sink_15] 0
loadshed[sink_16] 0
loadshed[sink_17] 0
loadshed[sink_18] 0
loadshed[sink_19] 0
loadshed[sink_20] 0
loadshed[sink_21] 1
loadshed[sink_22] 0
loadshed[sink_23] 0
loadshed[sink_24] 9.4214591298072292e-01
loadshed[sink_25] 0
loadshed[sink_26] 0
loadshed[sink_27] 0
loadshed[sink_28] 0
loadshed[sink_29] 0
flow[source_1,sink_3] 1.7470993426135846e+02
flow[innode_1,sink_16] 1.6354166666666970e+01
flow[innode_6,sink_13] -4.8809318734319262e+00
flow[sink_13,sink_14] -2.1235098540098594e+01
flow[sink_14,sink_10] -3.7589265206765262e+01
flow[sink_25,sink_26] 0
flow[sink_26,sink_9] 62.7252281816296
flow[sink_9,sink_18] 4.6371061514962932e+01
flow[sink_26,sink_4] -7.9079394848296261e+01
flow[sink_4,sink_20] -1.6926372229805764e+02
flow[sink_18,sink_6] 3.0016894848296261e+01
flow[sink_25,innode_8] -1.4200160092802207e+02
flow[sink_6,sink_7] -7.4673387349653808e+00
flow[sink_6,sink_22] 2.1130066916594977e+01
flow[sink_7,sink_24] 9.4615538146109657e-01
flow[sink_22,sink_1] 4.7759002499283074e+00
flow[sink_24,sink_21] 0
flow[sink_21,sink_12] 0
flow[sink_7,sink_5] -2.4767660783093142e+01
flow[sink_5,sink_17] -4.1121827449759820e+01
flow[sink_17,sink_4] -7.3830160783094868e+01
flow[sink_17,sink_8] 1.6354166666668334e+01
flow[sink_3,sink_23] 16.3541666666697
flow[sink_8,sink_20] 0
flow[sink_25,sink_20] 1.8561788896472447e+02
flow[sink_25,sink_15] -5.5089522829937167e+01
flow[sink_15,sink_29] -8.7797856163288088e+01
flow[sink_29,sink_28] 1.6354166666667879e+01
flow[sink_29,sink_2] 0
flow[sink_2,sink_15] -1.6354166666684250e+01
flow[sink_29,innode_7] -1.2050618949662254e+02
flow[innode_4,sink_19] 4.6275830668824085e+01
flow[sink_19,innode_3] 4.2285695663999647e+01
flow[innode_4,innode_5] 7.3084267871275472e+01
flow[sink_27,innode_5] -7.3084267871275472e+01
flow[sink_27,sink_19] 5.6730101204608808e+01
flow[sink_10,sink_11] 3.2708333333333641e+01
flow[sink_10,innode_2] -4.4366069542765921e+01
flow[sink_10,innode_3] -4.2285695663999647e+01
flow[innode_6,sink_25] 4.8809318734319262e+00
flow[sink_11,innode_1] 1.6354166666666970e+01
flow[sink_19,innode_2] 4.4366069542765921e+01
flow[source_3,innode_4] 1.1936009854009956e+02
flow[source_2,innode_7] 1.2050618949662254e+02
flow[sink_3,innode_8] 1.4200160092802207e+02
pressure[innode_1] 7.6641866867310171e+01
pressure[innode_2] 7.9138498188117353e+01
pressure[innode_3] 7.9044861303405014e+01
pressure[innode_4] 81.01325
pressure[innode_5] 8.0962978786812755e+01
pressure[innode_6] 7.4950738932043407e+01
pressure[innode_7] 81.01325
pressure[innode_8] 8.0429261431378279e+01
pressure[source_1] 81.01325
pressure[source_2] 81.01325
pressure[source_3] 81.01325
pressure[sink_1] 1.0132500000000002e+00
pressure[sink_2] 7.5164584048436069e+01
pressure[sink_3] 8.0429261431378279e+01
pressure[sink_4] 1.8282028054547247e+01
pressure[sink_5] 1.2397203848946262e+01
pressure[sink_6] 1.9940186512617386e+00
pressure[sink_7] 2.0965274126512381e+00
pressure[sink_8] 1.4843397561433626e+01
pressure[sink_9] 4.4734023308962385e+00
pressure[sink_10] 7.6793568174913716e+01
pressure[sink_11] 7.6641866867310171e+01
pressure[sink_12] 1.01325
pressure[sink_13] 7.4977646693782148e+01
pressure[sink_14] 7.5015648711450083e+01
pressure[sink_15] 7.5217976798202514e+01
pressure[sink_16] 7.5620217032492491e+01
pressure[sink_17] 1.5460482756847252e+01
pressure[sink_18] 2.79555911575219
pressure[sink_19] 7.9138498188117353e+01
pressure[sink_20] 3.0700001755687261e+01
pressure[sink_21] 1.01325
pressure[sink_22] 1.3239020446067296e+00
pressure[sink_23] 8.0264543419718493e+01
pressure[sink_24] 1.01325
pressure[sink_25] 7.4950738932043407e+01
pressure[sink_26] 8.2276691269243223e+00
pressure[sink_27] 8.0356514408687588e+01
pressure[sink_28] 7.7494899239803146e+01
pressure[sink_29] 7.7790181513420322e+01
interdiction[source_1,sink_3] 0
interdiction[innode_1,sink_16] 0
interdiction[innode_6,sink_13] 0
interdiction[sink_13,sink_14] 0
interdiction[sink_14,sink_10] 0
interdiction[sink_25,sink_26] 1
interdiction[sink_26,sink_9] 0
interdiction[sink_9,sink_18] 0
interdiction[sink_26,sink_4] 0
interdiction[sink_4,sink_20] 0
interdiction[sink_18,sink_6] 0
interdiction[sink_25,innode_8] 0
interdiction[sink_6,sink_7] 0
interdiction[sink_6,sink_22] 0
interdiction[sink_7,sink_24] 0
interdiction[sink_22,sink_1] 0
interdiction[sink_24,sink_21] 0
interdiction[sink_21,sink_12] 0
interdiction[sink_7,sink_5] 0
interdiction[sink_5,sink_17] 0
interdiction[sink_17,sink_4] 0
interdiction[sink_17,sink_8] 0
interdiction[sink_3,sink_23] 0
interdiction[sink_8,sink_20] 1
interdiction[sink_25,sink_20] 0
interdiction[sink_25,sink_15] 0
interdiction[sink_15,sink_29] 0
interdiction[sink_29,sink_28] 0
interdiction[sink_29,sink_2] 1
interdiction[sink_2,sink_15] 0
interdiction[sink_29,innode_7] 0
interdiction[innode_4,sink_19] 0
interdiction[sink_19,innode_3] 0
interdiction[innode_4,innode_5] 0
interdiction[sink_27,innode_5] 0
interdiction[sink_27,sink_19] 0
interdiction[sink_10,sink_11] 0
interdiction[sink_10,innode_2] 0
interdiction[sink_10,innode_3] 0
interdiction[innode_6,sink_25] 0
interdiction[sink_11,innode_1] 0
interdiction[sink_19,innode_2] 0
interdiction[source_3,innode_4] 0
interdiction[source_2,innode_7] 0
interdiction[sink_3,innode_8] 0
WCcheckFlow[source_1,sink_3] 39
WCcheckFlow[innode_1,sink_16] 1
WCcheckFlow[innode_6,sink_13] 13
WCcheckFlow[sink_13,sink_14] 12
WCcheckFlow[sink_14,sink_10] 11
WCcheckFlow[sink_25,sink_26] 0
WCcheckFlow[sink_26,sink_9] 12
WCcheckFlow[sink_9,sink_18] 11
WCcheckFlow[sink_26,sink_4] -13
WCcheckFlow[sink_4,sink_20] -14
WCcheckFlow[sink_18,sink_6] 10
WCcheckFlow[sink_25,innode_8] -36
WCcheckFlow[sink_6,sink_7] 7
WCcheckFlow[sink_6,sink_22] 2
WCcheckFlow[sink_7,sink_24] 3
WCcheckFlow[sink_22,sink_1] 1
WCcheckFlow[sink_24,sink_21] 2
WCcheckFlow[sink_21,sink_12] 1
WCcheckFlow[sink_7,sink_5] 3
WCcheckFlow[sink_5,sink_17] 2
WCcheckFlow[sink_17,sink_4] 0
WCcheckFlow[sink_17,sink_8] 1
WCcheckFlow[sink_3,sink_23] 1
WCcheckFlow[sink_8,sink_20] 0
WCcheckFlow[sink_25,sink_20] 15
WCcheckFlow[sink_25,sink_15] 6
WCcheckFlow[sink_15,sink_29] 4
WCcheckFlow[sink_29,sink_28] 1
WCcheckFlow[sink_29,sink_2] 0
WCcheckFlow[sink_2,sink_15] -1
WCcheckFlow[sink_29,innode_7] 2
WCcheckFlow[innode_4,sink_19] -4
WCcheckFlow[sink_19,innode_3] -5
WCcheckFlow[innode_4,innode_5] 2
WCcheckFlow[sink_27,innode_5] -1
WCcheckFlow[sink_27,sink_19] 0
WCcheckFlow[sink_10,sink_11] 3
WCcheckFlow[sink_10,innode_2] 1
WCcheckFlow[sink_10,innode_3] 6
WCcheckFlow[innode_6,sink_25] -14
WCcheckFlow[sink_11,innode_1] 2
WCcheckFlow[sink_19,innode_2] 0
WCcheckFlow[source_3,innode_4] -1
WCcheckFlow[source_2,innode_7] -1
WCcheckFlow[sink_3,innode_8] 37
